HUN,8,6,581
2,20,0,21,1,12,5,27,4,17,3,17
2,25,0,24,1,27,3,25,4,21,5,11
0,12,1,21,2,1,5,10,3,17,4,30
1,28,2,2,0,20,4,16,3,15,5,18
1,10,0,4,2,3,3,11,4,12,5,3
2,14,0,28,1,3,5,18,4,7,3,16
2,28,1,24,0,27,4,9,5,12,3,12
1,20,2,11,0,27,4,4,3,1,5,22
